p tw 117 128
1 2
2 30
3 14
4 5
5 6
6 7
7 8
8 9
9 10
10 18
11 12
12 13
13 15
14 22
15 16
16 17
17 18
18 19
19 20
20 21
22 23
23 24
24 25
24 32
25 26
26 27
27 28
28 29
29 31
30 41
31 32
32 33
33 34
34 35
35 36
36 37
37 38
38 39
39 40
39 42
40 42
41 52
42 43
43 44
44 45
45 46
46 47
47 48
48 49
48 58
49 50
50 51
51 53
52 63
53 54
54 55
54 58
55 56
56 57
57 46
58 59
59 60
59 67
60 61
61 62
62 64
63 74
64 65
65 66
66 70
67 68
68 69
69 70
70 71
71 72
72 73
73 75
74 85
74 107
75 76
76 77
76 92
77 78
78 79
79 80
80 81
81 82
82 83
83 84
83 89
84 86
85 96
86 87
87 88
88 89
88 92
89 90
90 91
91 75
92 93
93 94
93 105
94 95
95 97
96 41
97 98
98 99
99 100
100 101
101 102
102 103
103 104
104 18
105 106
106 108
107 3
108 109
109 110
110 111
111 112
112 113
112 115
113 114
114 115
114 11
115 116
116 117
117 4
